
Gurobi 13.0.1 (win64) logging started Fri Apr 10 03:54:48 2026

Set parameter LogFile to value "C:\Users\jiho\code\cloud_vmp_optimization\experiments\2604-chance-2sp-toy\results\runs\chance_2sp_toy_24vm_combination_od_sp_od12_sp12_bj0_sc10_cap8_avg20_lam000\solver.log"
Set parameter Threads to value 8
Gurobi Optimizer version 13.0.1 build v13.0.1rc0 (win64 - Windows 11+.0 (26200.2))

CPU model: 13th Gen Intel(R) Core(TM) i9-13900K, instruction set [SSE2|AVX|AVX2]
Thread count: 24 physical cores, 32 logical processors, using up to 8 threads

Non-default parameters:
TimeLimit  7200
MIPGap  0.001
Threads  8

Optimize a model with 68423 rows, 31876 columns and 278142 nonzeros (Min)
Model fingerprint: 0x37019058
Model has 8 linear objective coefficients
Variable types: 1920 continuous, 29956 integer (29956 binary)
Coefficient statistics:
  Matrix range     [5e-02, 4e+01]
  Objective range  [1e+00, 1e+00]
  Bounds range     [1e+00, 1e+00]
  RHS range        [1e-01, 2e+01]

Presolve removed 10656 rows and 4308 columns
Presolve time: 0.64s
Presolved: 57767 rows, 27568 columns, 252414 nonzeros
Variable types: 0 continuous, 27568 integer (27568 binary)

Deterministic concurrent LP optimizer: primal and dual simplex (primal and dual model)
Showing primal log only...

Root relaxation presolved: 57767 rows, 27568 columns, 252414 nonzeros


Root simplex log...

Iteration    Objective       Primal Inf.    Dual Inf.      Time
   16986    6.6464088e+00   0.000000e+00   3.165531e+03      5s
   22496    3.2470140e+00   0.000000e+00   1.668156e+03     10s
   25606    2.9944666e+00   0.000000e+00   6.384755e+03     15s
   28926    2.8381764e+00   0.000000e+00   4.418563e+02     20s
   31616    2.7466451e+00   0.000000e+00   3.570512e+03     25s
   34246    2.5951613e+00   0.000000e+00   1.080060e+03     30s
   36396    2.5045278e+00   0.000000e+00   3.917425e+02     35s
   38666    2.4198415e+00   0.000000e+00   6.131287e+02     40s
   40866    2.3566184e+00   0.000000e+00   2.716664e+02     45s
   43166    2.2789973e+00   0.000000e+00   4.956537e+02     50s
   45346    2.1817114e+00   0.000000e+00   4.253188e+02     55s
   47526    2.0836079e+00   0.000000e+00   2.844890e+03     60s
   49806    1.9800024e+00   0.000000e+00   6.072551e+02     65s
   51746    1.8996893e+00   0.000000e+00   4.942606e+02     70s
Concurrent spin time: 22.05s (can be avoided by choosing Method=3)

Solved with primal simplex

Root relaxation: objective 1.000000e+00, 94501 iterations, 92.26 seconds (75.12 work units)

    Nodes    |    Current Node    |     Objective Bounds      |     Work
 Expl Unexpl |  Obj  Depth IntInf | Incumbent    BestBd   Gap | It/Node Time

     0     0    1.00000    0 25013          -    1.00000      -     -  390s
     0     0    2.24608    0 26383          -    2.24608      -     -  635s
H    0     0                       8.0000000    2.24608  71.9%     -  635s
     0     0    2.26321    0 22670    8.00000    2.26321  71.7%     -  650s
H    0     0                       7.0000000    2.35454  66.4%     -  750s
H    0     0                       6.0000000    2.35454  60.8%     -  750s
H    0     0                       5.0000000    2.35454  52.9%     -  750s
     0     0    3.00000    0 12653    5.00000    3.00000  40.0%     -  860s
     0     0    3.00000    0 11978    5.00000    3.00000  40.0%     - 1023s
     0     0    3.00000    0 12411    5.00000    3.00000  40.0%     - 1133s
     0     0    3.00000    0 7973    5.00000    3.00000  40.0%     - 1144s
     0     0    3.00000    0 8892    5.00000    3.00000  40.0%     - 1196s
     0     0    3.02197    0 11664    5.00000    3.02197  39.6%     - 1282s
     0     0    4.00000    0 7796    5.00000    4.00000  20.0%     - 1292s
     0     0    4.00000    0 7771    5.00000    4.00000  20.0%     - 1293s
     0     0    4.00000    0 8328    5.00000    4.00000  20.0%     - 1303s
     0     0    4.00000    0  973    5.00000    4.00000  20.0%     - 1309s
     0     0    4.00000    0  924    5.00000    4.00000  20.0%     - 1313s
     0     0    4.00000    0 2305    5.00000    4.00000  20.0%     - 1322s
     0     0    4.00000    0 2306    5.00000    4.00000  20.0%     - 1325s
     0     0    4.00000    0 2540    5.00000    4.00000  20.0%     - 1334s
     0     0    4.00000    0 1734    5.00000    4.00000  20.0%     - 1339s
     0     0    4.00000    0 1737    5.00000    4.00000  20.0%     - 1346s
     0     0    4.00000    0 2284    5.00000    4.00000  20.0%     - 1354s
     0     0    4.00000    0 1953    5.00000    4.00000  20.0%     - 1367s
     0     0    4.00000    0 1836    5.00000    4.00000  20.0%     - 1381s
     0     0    4.00000    0 2378    5.00000    4.00000  20.0%     - 1392s
     0     0    4.00000    0  841    5.00000    4.00000  20.0%     - 1399s
     0     0    4.00000    0 1137    5.00000    4.00000  20.0%     - 1405s
     0     0    4.00000    0 1454    5.00000    4.00000  20.0%     - 1414s
     0     0    4.00000    0  913    5.00000    4.00000  20.0%     - 1419s
     0     0    4.00000    0  912    5.00000    4.00000  20.0%     - 1422s
     0     0    4.00000    0  853    5.00000    4.00000  20.0%     - 1424s
     0     2    4.00000    0  853    5.00000    4.00000  20.0%     - 1428s
     3     8    4.00000    2 2497    5.00000    4.00000  20.0%  7475 1436s
     7    16    4.00000    3 2711    5.00000    4.00000  20.0% 12432 1447s
    15    24    4.00000    4 3241    5.00000    4.00000  20.0% 15021 1458s
    23    81    4.00000    5 2945    5.00000    4.00000  20.0% 14422 1475s
    80   365    4.00000   10 1742    5.00000    4.00000  20.0%  4731 1506s
   390   532    4.00000   45 1516    5.00000    4.00000  20.0%  2349 1549s
   708   580 infeasible   30         5.00000    4.00000  20.0%  2473 1596s
   865   581    4.00000   47 11978    5.00000    4.00000  20.0%  2836 1656s
   867   582    4.00000   42 2594    5.00000    4.00000  20.0%  2830 1671s
   868   583    4.00000    8 2914    5.00000    4.00000  20.0%  2827 1681s
   869   584    4.00000    4 3206    5.00000    4.00000  20.0%  2823 1686s
   870   584    4.00000   39 1603    5.00000    4.00000  20.0%  2820 1716s
   871   585    4.00000   27 2015    5.00000    4.00000  20.0%  2817 1729s
   872   586    4.00000   36 2111    5.00000    4.00000  20.0%  2814 1765s
   873   586    4.00000   19 3330    5.00000    4.00000  20.0%  2810 1776s
   874   587    4.00000   45 2610    5.00000    4.00000  20.0%  2807 1811s
   875   588    4.00000   18 2555    5.00000    4.00000  20.0%  2804 1827s
   876   588    4.00000   33 2555    5.00000    4.00000  20.0%  2801 1832s
   877   592    4.00000   14 2053    5.00000    4.00000  20.0%  3129 1843s
   879   594    4.00000   15 2296    5.00000    4.00000  20.0%  3138 1852s
   882   600    4.00000   16 2868    5.00000    4.00000  20.0%  3178 1866s
   889   606    4.00000   17 3663    5.00000    4.00000  20.0%  3280 1875s
   977   749    4.00000   23 2022    5.00000    4.00000  20.0%  3146 1889s
  1069   842    4.00000   32 1449    5.00000    4.00000  20.0%  2989 1908s
  1195   931    4.00000   38 1284    5.00000    4.00000  20.0%  2908 1956s
  1366   912 infeasible   53         5.00000    4.00000  20.0%  2985 2016s
  1492   906    4.00000   37 2854    5.00000    4.00000  20.0%  3255 2100s
  1610   886    4.00000   36 4171    5.00000    4.00000  20.0%  3392 2194s
  1689   879 infeasible   49         5.00000    4.00000  20.0%  3516 2306s
  1779   924    4.00000   42 3652    5.00000    4.00000  20.0%  3681 2463s
  1968   983    4.00000   48 3061    5.00000    4.00000  20.0%  3895 2655s
  2246  1135    4.00000   38 2701    5.00000    4.00000  20.0%  4161 2866s
  2646  1025    4.00000   39 2180    5.00000    4.00000  20.0%  4209 3066s
  2708  1079    4.00000   38 3041    5.00000    4.00000  20.0%  4245 3280s
  2856  1168    4.00000   46 3204    5.00000    4.00000  20.0%  4302 3524s
  3035  1298    4.00000   47 3356    5.00000    4.00000  20.0%  4298 3796s
  3331  1424 infeasible   61         5.00000    4.00000  20.0%  4357 4135s
  3685  1504    4.00000   43 4538    5.00000    4.00000  20.0%  4504 4509s
  4001  1657    4.00000   31 3823    5.00000    4.00000  20.0%  4628 4869s
  4390  1841 infeasible   47         5.00000    4.00000  20.0%  4627 5130s
  4866  1955    4.00000   32 3447    5.00000    4.00000  20.0%  4643 5402s
  5274  2039 infeasible   49         5.00000    4.00000  20.0%  4642 5731s
  5566  2045    4.00000   40 1904    5.00000    4.00000  20.0%  4687 6124s
  5576  2091    4.00000   41 1641    5.00000    4.00000  20.0%  4689 6480s
  5672  2155    4.00000   42 1570    5.00000    4.00000  20.0%  4671 6829s
  5812  2256 infeasible   43         5.00000    4.00000  20.0%  4646 7200s

Cutting planes:
  Gomory: 70
  Lift-and-project: 24
  Cover: 9740
  Clique: 17
  MIR: 11643
  Mixing: 4
  StrongCG: 9255
  Flow cover: 4644
  GUB cover: 142
  Inf proof: 6
  Zero half: 61
  RLT: 629
  Relax-and-lift: 4

Explored 6035 nodes (28970739 simplex iterations) in 7200.45 seconds (9293.71 work units)
Thread count was 8 (of 32 available processors)

Solution count 4: 5 6 7 8 

Time limit reached
Best objective 5.000000000000e+00, best bound 4.000000000000e+00, gap 20.0000%
